5 5
4 1 4 4 4 1 6 2 16 3 14 5 7 3 2 10 1 11 3 17 5 2 17 1 5 4 14 5 8 3 19
4 3 1 9 4 14 5 11 4 3 11 2 12 1 3 4 18 3 5 5 3 18 1 11 1 5 16
4 1 1 10 5 1 3 3 10 2 3 4 16 5 19 3 5 8 4 7 2 12 1 3 7
4 4 1 18 4 15 2 7 5 10 1 5 11 1 3 11 2 2 7 3 18
6 5 3 5 5 5 1 20 4 12 2 13 3 2 12 5 10 1 9 5 2 16 5 11 1 13 3 17 4 3 3 1 4 5 18 2 18 2 3 3 1 13 2 5 9 2 9